certificates/rado_a11_c118_N26.cnf
c Rad2 upper bound instance: x1 + 11*x2 - x3 = 118, interval [1,26]
p cnf 26 122
1 4 11 0
-1 -4 -11 0
1 12 15 0
-1 -12 -15 0
1 13 26 0
-1 -13 -26 0
2 5 11 0
-2 -5 -11 0
2 12 16 0
-2 -12 -16 0
3 6 11 0
-3 -6 -11 0
3 12 17 0
-3 -12 -17 0
4 7 11 0
-4 -7 -11 0
4 12 18 0
-4 -12 -18 0
5 8 11 0
-5 -8 -11 0
5 12 19 0
-5 -12 -19 0
6 9 11 0
-6 -9 -11 0
6 12 20 0
-6 -12 -20 0
7 10 11 0
-7 -10 -11 0
7 12 21 0
-7 -12 -21 0
8 11 0
-8 -11 0
8 12 22 0
-8 -12 -22 0
1 9 10 0
-1 -9 -10 0
9 11 12 0
-9 -11 -12 0
9 12 23 0
-9 -12 -23 0
2 10 0
-2 -10 0
10 11 13 0
-10 -11 -13 0
10 12 24 0
-10 -12 -24 0
3 10 11 0
-3 -10 -11 0
11 14 0
-11 -14 0
11 12 25 0
-11 -12 -25 0
4 10 12 0
-4 -10 -12 0
11 12 15 0
-11 -12 -15 0
12 26 0
-12 -26 0
5 10 13 0
-5 -10 -13 0
11 13 16 0
-11 -13 -16 0
6 10 14 0
-6 -10 -14 0
11 14 17 0
-11 -14 -17 0
7 10 15 0
-7 -10 -15 0
11 15 18 0
-11 -15 -18 0
8 10 16 0
-8 -10 -16 0
11 16 19 0
-11 -16 -19 0
9 10 17 0
-9 -10 -17 0
11 17 20 0
-11 -17 -20 0
10 18 0
-10 -18 0
11 18 21 0
-11 -18 -21 0
10 11 19 0
-10 -11 -19 0
11 19 22 0
-11 -19 -22 0
1 9 20 0
-1 -9 -20 0
10 12 20 0
-10 -12 -20 0
11 20 23 0
-11 -20 -23 0
2 9 21 0
-2 -9 -21 0
10 13 21 0
-10 -13 -21 0
11 21 24 0
-11 -21 -24 0
3 9 22 0
-3 -9 -22 0
10 14 22 0
-10 -14 -22 0
11 22 25 0
-11 -22 -25 0
4 9 23 0
-4 -9 -23 0
10 15 23 0
-10 -15 -23 0
11 23 26 0
-11 -23 -26 0
5 9 24 0
-5 -9 -24 0
10 16 24 0
-10 -16 -24 0
6 9 25 0
-6 -9 -25 0
10 17 25 0
-10 -17 -25 0
7 9 26 0
-7 -9 -26 0
10 18 26 0
-10 -18 -26 0
