certificates/rado_a11_c118_N26.drat
-23 -26 0
-24 -26 0
-26 0
12 0
-11 0
8 0
14 0
23 0
-22 0
-9 0
25 0
3 0
19 0
6 0
7 0
-17 0
-5 0
-20 0
-10 0
-21 0
0
